0000001110000000
0000010000000000
0000010001000000
0000010000000000
0000010000000000
0000000000000000
0000000000000000
0000101000000000
0010000000000000
0100000000000000
0100000000000000
0100000000000000
0000001000000000
0011100000000000
0000000000000000
0000000000000000
